; Copyright (c) 2026 The RIINA Authors. All rights reserved.
; Copyright (c) 2026 The RIINA Authors.
; Auto-generated from 02_FORMAL/coq/domains/MobilePlatform.v (25 assertions)
; Generated by scripts/generate-full-stack.py
; Module: MobilePlatform

(set-logic ALL)
(set-option :produce-models true)

; Resource (matches Coq: Inductive Resource)
(declare-datatypes ((Resource 0)) (((FileResource) (NetworkResource) (SensorResource) (ContactResource) (LocationResource) (CameraResource) (MicrophoneResource))))

; PermLevel (matches Coq: Inductive PermLevel)
(declare-datatypes ((PermLevel 0)) (((Normal) (Dangerous) (Signature) (System))))

; IpcResult (matches Coq: Inductive IpcResult)
(declare-datatypes ((IpcResult 0)) (((IpcAllowed) (IpcDenied) (IpcPendingUser))))

; uids_unique (matches Coq: Definition uids_unique)
(define-fun uids_unique () Prop true)

; sandbox_valid (matches Coq: Definition sandbox_valid)
(define-fun sandbox_valid ((sandbox Sandbox) (app AppId)) Prop
  true)

; file_isolated (matches Coq: Definition file_isolated)
(define-fun file_isolated () Bool Nat)

; requires_user_consent (matches Coq: Definition requires_user_consent)
(define-fun requires_user_consent ((p Permission)) Bool
  true)

; signature_matches (matches Coq: Definition signature_matches)
(define-fun signature_matches ((app AppId) (required_sig Int)) Bool
  Nat)

; is_system_app (matches Coq: Definition is_system_app)
(define-fun is_system_app ((app AppId)) Bool
  true)

; ipc_allowed (matches Coq: Definition ipc_allowed)
(define-fun ipc_allowed ((intent Intent) (target_exported Bool) (same_app Bool)) Bool
  true)

; key_extractable (matches Coq: Definition key_extractable)
(define-fun key_extractable ((props KeyProps)) Bool
  true)

; auth_recent (matches Coq: Definition auth_recent)
(define-fun auth_recent () Bool Nat)

; grant_valid (matches Coq: Definition grant_valid)
(define-fun grant_valid ((g PermGrant) (current_time Int)) Bool
  true)

; has_network_permission (matches Coq: Definition has_network_permission)
(define-fun has_network_permission ((app AppId)) Bool
  true)

; has_location_permission (matches Coq: Definition has_location_permission)
(define-fun has_location_permission ((app AppId)) Bool
  true)

; has_camera_permission (matches Coq: Definition has_camera_permission)
(define-fun has_camera_permission ((app AppId)) Bool
  true)

; intent_matches (matches Coq: Definition intent_matches)
(define-fun intent_matches ((intent Intent) (filter_action Int)) Bool
  Nat)

; explicit_intent (matches Coq: Definition explicit_intent)
(define-fun explicit_intent ((intent Intent)) Bool
  true)

; processes_isolated (matches Coq: Definition processes_isolated)
(define-fun processes_isolated () Bool true)

; boot_verified (matches Coq: Definition boot_verified)
(define-fun boot_verified () Bool true)

; enclave_isolated (matches Coq: Definition enclave_isolated)
(define-fun enclave_isolated () Prop true)

; biometric_in_tee (matches Coq: Definition biometric_in_tee)
(define-fun biometric_in_tee ((storage_location Int) (tee_location Int)) Bool
  Nat)

; signature_valid (matches Coq: Definition signature_valid)
(define-fun signature_valid ((app AppId)) Bool
  true)

; mobile_layers (matches Coq: Definition mobile_layers)
(define-fun mobile_layers () Bool true)

; mobile_001_unique_uids (matches Coq: Theorem mobile_001_unique_uids)
(assert (= true true)) ; mobile_001_unique_uids [untranslatable]

; mobile_002_sandbox_valid (matches Coq: Theorem mobile_002_sandbox_valid)
(assert (= true true)) ; mobile_002_sandbox_valid [untranslatable]

; mobile_003_file_isolation (matches Coq: Theorem mobile_003_file_isolation)
(assert (= true true)) ; mobile_003_file_isolation [untranslatable]

; mobile_004_dangerous_consent (matches Coq: Theorem mobile_004_dangerous_consent)
(assert (forall ((p Permission)) (=> (= (perm_level p) Dangerous) (= (requires_user_consent p) true)))) ; mobile_004_dangerous_consent

; mobile_005_signature_permission (matches Coq: Theorem mobile_005_signature_permission)
(assert (= true true)) ; mobile_005_signature_permission [untranslatable]

; mobile_006_system_permission (matches Coq: Theorem mobile_006_system_permission)
(assert (= true true)) ; mobile_006_system_permission [untranslatable]

; mobile_007_unexported_denied (matches Coq: Theorem mobile_007_unexported_denied)
(assert (forall ((intent Intent)) (=> (= (intent_exported intent) false) (= (ipc_allowed intent false false) false)))) ; mobile_007_unexported_denied

; mobile_008_same_app_ipc (matches Coq: Theorem mobile_008_same_app_ipc)
(assert (= true true)) ; mobile_008_same_app_ipc [untranslatable]

; mobile_009_hw_key_protected (matches Coq: Theorem mobile_009_hw_key_protected)
(assert (forall ((props KeyProps)) (=> (= (key_hardware_backed props) true) (= (key_extractable props) false)))) ; mobile_009_hw_key_protected

; mobile_010_auth_required (matches Coq: Theorem mobile_010_auth_required)
(assert (= true true)) ; mobile_010_auth_required [untranslatable]

; mobile_011_grant_owner (matches Coq: Theorem mobile_011_grant_owner)
(assert (= true true)) ; mobile_011_grant_owner [untranslatable]

; mobile_012_expired_invalid (matches Coq: Theorem mobile_012_expired_invalid)
(assert (= true true)) ; mobile_012_expired_invalid [untranslatable]

; mobile_013_network_permission (matches Coq: Theorem mobile_013_network_permission)
(assert (= true true)) ; mobile_013_network_permission [untranslatable]

; mobile_014_location_permission (matches Coq: Theorem mobile_014_location_permission)
(assert (= true true)) ; mobile_014_location_permission [untranslatable]

; mobile_015_camera_permission (matches Coq: Theorem mobile_015_camera_permission)
(assert (= true true)) ; mobile_015_camera_permission [untranslatable]

; mobile_016_microphone_permission (matches Coq: Theorem mobile_016_microphone_permission)
(assert (= true true)) ; mobile_016_microphone_permission [untranslatable]

; mobile_017_intent_filter (matches Coq: Theorem mobile_017_intent_filter)
(assert (= true true)) ; mobile_017_intent_filter [untranslatable]

; mobile_018_explicit_target (matches Coq: Theorem mobile_018_explicit_target)
(assert (= true true)) ; mobile_018_explicit_target [untranslatable]

; mobile_019_process_isolation (matches Coq: Theorem mobile_019_process_isolation)
(assert (= true true)) ; mobile_019_process_isolation [untranslatable]

; mobile_020_selinux_enforced (matches Coq: Theorem mobile_020_selinux_enforced)
(assert (= true true)) ; mobile_020_selinux_enforced [untranslatable]

; mobile_021_verified_boot (matches Coq: Theorem mobile_021_verified_boot)
(assert (= true true)) ; mobile_021_verified_boot [untranslatable]

; mobile_022_enclave_isolation (matches Coq: Theorem mobile_022_enclave_isolation)
(assert (= true true)) ; mobile_022_enclave_isolation [untranslatable]

; mobile_023_biometric_tee (matches Coq: Theorem mobile_023_biometric_tee)
(assert (= true true)) ; mobile_023_biometric_tee [untranslatable]

; mobile_024_signature_verified (matches Coq: Theorem mobile_024_signature_verified)
(assert (= true true)) ; mobile_024_signature_verified [untranslatable]

; mobile_025_defense_in_depth (matches Coq: Theorem mobile_025_defense_in_depth)
(assert (= true true)) ; mobile_025_defense_in_depth [untranslatable]

; Verify all assertions are satisfiable
(check-sat)
(exit)
